# Solution for model r10_t9_m2_1
# Finished Task: 9 / 9
# Makespan: 414.0, Total Distance: 96.0, Total Time: 1.2309
# R O S F
0 0 16 37.0 37.0
1 1 10 46.0 46.0
2 2 13 78.0 78.0
3 3 -1 46.0 46.0
4 4 17 22.0 22.0
5 5 12 0.0 0.0
6 6 11 0.0 0.0
7 7 14 0.0 0.0
8 8 15 39.0 39.0
9 9 -1 39.0 39.0
10 1 -1 356.0 388.0
11 6 -1 188.0 223.0
12 5 -1 377.0 414.0
13 2 -1 379.0 403.0
14 7 -1 346.0 367.0
15 8 -1 123.0 162.0
16 0 18 158.0 195.0
17 4 -1 311.0 331.0
18 0 -1 303.0 338.0
